Minimize
L
Subject To
x0,1 + x0,2 + x0,3 + x0,4 + x0,5 + x0,6 + x0,7 + x0,8 + x0,9 + x0,10 + x0,11 + x0,12 + x0,13 + x0,14 + x0,15 + x0,16 + x0,17 + x0,18 = 1
2 x0,1 - L <= 0
3 x0,2 - L <= 0
4 x0,3 - L <= 0
5 x0,4 - L <= 0
6 x0,5 - L <= 0
7 x0,6 - L <= 0
8 x0,7 - L <= 0
9 x0,8 - L <= 0
10 x0,9 - L <= 0
11 x0,10 - L <= 0
12 x0,11 - L <= 0
13 x0,12 - L <= 0
14 x0,13 - L <= 0
15 x0,14 - L <= 0
16 x0,15 - L <= 0
17 x0,16 - L <= 0
18 x0,17 - L <= 0
19 x0,18 - L <= 0
x1,3 + x1,4 + x1,5 + x1,6 + x1,7 + x1,8 + x1,9 + x1,10 + x1,11 + x1,12 + x1,13 + x1,14 + x1,15 + x1,16 + x1,17 + x1,18 = 1
3 x1,3 - L <= 0
4 x1,4 - L <= 0
5 x1,5 - L <= 0
6 x1,6 - L <= 0
7 x1,7 - L <= 0
8 x1,8 - L <= 0
9 x1,9 - L <= 0
10 x1,10 - L <= 0
11 x1,11 - L <= 0
12 x1,12 - L <= 0
13 x1,13 - L <= 0
14 x1,14 - L <= 0
15 x1,15 - L <= 0
16 x1,16 - L <= 0
17 x1,17 - L <= 0
18 x1,18 - L <= 0
x2,4 + x2,5 + x2,6 + x2,7 + x2,8 + x2,9 + x2,10 + x2,11 + x2,12 + x2,13 + x2,14 + x2,15 + x2,16 + x2,17 + x2,18 = 1
5 x2,4 - L <= 0
6 x2,5 - L <= 0
7 x2,6 - L <= 0
8 x2,7 - L <= 0
9 x2,8 - L <= 0
10 x2,9 - L <= 0
11 x2,10 - L <= 0
12 x2,11 - L <= 0
13 x2,12 - L <= 0
14 x2,13 - L <= 0
15 x2,14 - L <= 0
16 x2,15 - L <= 0
17 x2,16 - L <= 0
18 x2,17 - L <= 0
19 x2,18 - L <= 0
x3,6 + x3,7 + x3,8 + x3,9 + x3,10 + x3,11 + x3,12 + x3,13 + x3,14 + x3,15 + x3,16 + x3,17 + x3,18 = 1
6 x3,6 - L <= 0
7 x3,7 - L <= 0
8 x3,8 - L <= 0
9 x3,9 - L <= 0
10 x3,10 - L <= 0
11 x3,11 - L <= 0
12 x3,12 - L <= 0
13 x3,13 - L <= 0
14 x3,14 - L <= 0
15 x3,15 - L <= 0
16 x3,16 - L <= 0
17 x3,17 - L <= 0
18 x3,18 - L <= 0
x4,7 + x4,8 + x4,9 + x4,10 + x4,11 + x4,12 + x4,13 + x4,14 + x4,15 + x4,16 + x4,17 + x4,18 = 1
7 x4,7 - L <= 0
8 x4,8 - L <= 0
9 x4,9 - L <= 0
10 x4,10 - L <= 0
11 x4,11 - L <= 0
12 x4,12 - L <= 0
13 x4,13 - L <= 0
14 x4,14 - L <= 0
15 x4,15 - L <= 0
16 x4,16 - L <= 0
17 x4,17 - L <= 0
18 x4,18 - L <= 0
x5,8 + x5,9 + x5,10 + x5,11 + x5,12 + x5,13 + x5,14 + x5,15 + x5,16 + x5,17 + x5,18 = 1
9 x5,8 - L <= 0
10 x5,9 - L <= 0
11 x5,10 - L <= 0
12 x5,11 - L <= 0
13 x5,12 - L <= 0
14 x5,13 - L <= 0
15 x5,14 - L <= 0
16 x5,15 - L <= 0
17 x5,16 - L <= 0
18 x5,17 - L <= 0
19 x5,18 - L <= 0
x6,1 + x6,2 + x6,3 + x6,4 + x6,5 + x6,6 + x6,7 + x6,8 + x6,9 + x6,10 + x6,11 + x6,12 + x6,13 + x6,14 + x6,15 + x6,16 + x6,17 + x6,18 = 1
2 x6,1 - L <= 0
3 x6,2 - L <= 0
4 x6,3 - L <= 0
5 x6,4 - L <= 0
6 x6,5 - L <= 0
7 x6,6 - L <= 0
8 x6,7 - L <= 0
9 x6,8 - L <= 0
10 x6,9 - L <= 0
11 x6,10 - L <= 0
12 x6,11 - L <= 0
13 x6,12 - L <= 0
14 x6,13 - L <= 0
15 x6,14 - L <= 0
16 x6,15 - L <= 0
17 x6,16 - L <= 0
18 x6,17 - L <= 0
19 x6,18 - L <= 0
x7,1 + x7,2 + x7,3 + x7,4 + x7,5 + x7,6 + x7,7 + x7,8 + x7,9 + x7,10 + x7,11 + x7,12 + x7,13 + x7,14 + x7,15 + x7,16 + x7,17 + x7,18 = 1
2 x7,1 - L <= 0
3 x7,2 - L <= 0
4 x7,3 - L <= 0
5 x7,4 - L <= 0
6 x7,5 - L <= 0
7 x7,6 - L <= 0
8 x7,7 - L <= 0
9 x7,8 - L <= 0
10 x7,9 - L <= 0
11 x7,10 - L <= 0
12 x7,11 - L <= 0
13 x7,12 - L <= 0
14 x7,13 - L <= 0
15 x7,14 - L <= 0
16 x7,15 - L <= 0
17 x7,16 - L <= 0
18 x7,17 - L <= 0
19 x7,18 - L <= 0
x8,3 + x8,4 + x8,5 + x8,6 + x8,7 + x8,8 + x8,9 + x8,10 + x8,11 + x8,12 + x8,13 + x8,14 + x8,15 + x8,16 + x8,17 + x8,18 = 1
3 x8,3 - L <= 0
4 x8,4 - L <= 0
5 x8,5 - L <= 0
6 x8,6 - L <= 0
7 x8,7 - L <= 0
8 x8,8 - L <= 0
9 x8,9 - L <= 0
10 x8,10 - L <= 0
11 x8,11 - L <= 0
12 x8,12 - L <= 0
13 x8,13 - L <= 0
14 x8,14 - L <= 0
15 x8,15 - L <= 0
16 x8,16 - L <= 0
17 x8,17 - L <= 0
18 x8,18 - L <= 0
x9,4 + x9,5 + x9,6 + x9,7 + x9,8 + x9,9 + x9,10 + x9,11 + x9,12 + x9,13 + x9,14 + x9,15 + x9,16 + x9,17 + x9,18 = 1
4 x9,4 - L <= 0
5 x9,5 - L <= 0
6 x9,6 - L <= 0
7 x9,7 - L <= 0
8 x9,8 - L <= 0
9 x9,9 - L <= 0
10 x9,10 - L <= 0
11 x9,11 - L <= 0
12 x9,12 - L <= 0
13 x9,13 - L <= 0
14 x9,14 - L <= 0
15 x9,15 - L <= 0
16 x9,16 - L <= 0
17 x9,17 - L <= 0
18 x9,18 - L <= 0
x10,5 + x10,6 + x10,7 + x10,8 + x10,9 + x10,10 + x10,11 + x10,12 + x10,13 + x10,14 + x10,15 + x10,16 + x10,17 + x10,18 = 1
6 x10,5 - L <= 0
7 x10,6 - L <= 0
8 x10,7 - L <= 0
9 x10,8 - L <= 0
10 x10,9 - L <= 0
11 x10,10 - L <= 0
12 x10,11 - L <= 0
13 x10,12 - L <= 0
14 x10,13 - L <= 0
15 x10,14 - L <= 0
16 x10,15 - L <= 0
17 x10,16 - L <= 0
18 x10,17 - L <= 0
19 x10,18 - L <= 0
x11,10 + x11,11 + x11,12 + x11,13 + x11,14 + x11,15 + x11,16 + x11,17 + x11,18 = 1
10 x11,10 - L <= 0
11 x11,11 - L <= 0
12 x11,12 - L <= 0
13 x11,13 - L <= 0
14 x11,14 - L <= 0
15 x11,15 - L <= 0
16 x11,16 - L <= 0
17 x11,17 - L <= 0
18 x11,18 - L <= 0
x12,1 + x12,2 + x12,3 + x12,4 + x12,5 + x12,6 + x12,7 + x12,8 + x12,9 + x12,10 + x12,11 + x12,12 + x12,13 + x12,14 + x12,15 + x12,16 + x12,17 + x12,18 = 1
2 x12,1 - L <= 0
3 x12,2 - L <= 0
4 x12,3 - L <= 0
5 x12,4 - L <= 0
6 x12,5 - L <= 0
7 x12,6 - L <= 0
8 x12,7 - L <= 0
9 x12,8 - L <= 0
10 x12,9 - L <= 0
11 x12,10 - L <= 0
12 x12,11 - L <= 0
13 x12,12 - L <= 0
14 x12,13 - L <= 0
15 x12,14 - L <= 0
16 x12,15 - L <= 0
17 x12,16 - L <= 0
18 x12,17 - L <= 0
19 x12,18 - L <= 0
x13,3 + x13,4 + x13,5 + x13,6 + x13,7 + x13,8 + x13,9 + x13,10 + x13,11 + x13,12 + x13,13 + x13,14 + x13,15 + x13,16 + x13,17 + x13,18 = 1
3 x13,3 - L <= 0
4 x13,4 - L <= 0
5 x13,5 - L <= 0
6 x13,6 - L <= 0
7 x13,7 - L <= 0
8 x13,8 - L <= 0
9 x13,9 - L <= 0
10 x13,10 - L <= 0
11 x13,11 - L <= 0
12 x13,12 - L <= 0
13 x13,13 - L <= 0
14 x13,14 - L <= 0
15 x13,15 - L <= 0
16 x13,16 - L <= 0
17 x13,17 - L <= 0
18 x13,18 - L <= 0
x14,4 + x14,5 + x14,6 + x14,7 + x14,8 + x14,9 + x14,10 + x14,11 + x14,12 + x14,13 + x14,14 + x14,15 + x14,16 + x14,17 + x14,18 = 1
5 x14,4 - L <= 0
6 x14,5 - L <= 0
7 x14,6 - L <= 0
8 x14,7 - L <= 0
9 x14,8 - L <= 0
10 x14,9 - L <= 0
11 x14,10 - L <= 0
12 x14,11 - L <= 0
13 x14,12 - L <= 0
14 x14,13 - L <= 0
15 x14,14 - L <= 0
16 x14,15 - L <= 0
17 x14,16 - L <= 0
18 x14,17 - L <= 0
19 x14,18 - L <= 0
x15,6 + x15,7 + x15,8 + x15,9 + x15,10 + x15,11 + x15,12 + x15,13 + x15,14 + x15,15 + x15,16 + x15,17 + x15,18 = 1
6 x15,6 - L <= 0
7 x15,7 - L <= 0
8 x15,8 - L <= 0
9 x15,9 - L <= 0
10 x15,10 - L <= 0
11 x15,11 - L <= 0
12 x15,12 - L <= 0
13 x15,13 - L <= 0
14 x15,14 - L <= 0
15 x15,15 - L <= 0
16 x15,16 - L <= 0
17 x15,17 - L <= 0
18 x15,18 - L <= 0
x16,11 + x16,12 + x16,13 + x16,14 + x16,15 + x16,16 + x16,17 + x16,18 = 1
11 x16,11 - L <= 0
12 x16,12 - L <= 0
13 x16,13 - L <= 0
14 x16,14 - L <= 0
15 x16,15 - L <= 0
16 x16,16 - L <= 0
17 x16,17 - L <= 0
18 x16,18 - L <= 0
x17,1 + x17,2 + x17,3 + x17,4 + x17,5 + x17,6 + x17,7 + x17,8 + x17,9 + x17,10 + x17,11 + x17,12 + x17,13 + x17,14 + x17,15 + x17,16 + x17,17 + x17,18 = 1
1 x17,1 - L <= 0
2 x17,2 - L <= 0
3 x17,3 - L <= 0
4 x17,4 - L <= 0
5 x17,5 - L <= 0
6 x17,6 - L <= 0
7 x17,7 - L <= 0
8 x17,8 - L <= 0
9 x17,9 - L <= 0
10 x17,10 - L <= 0
11 x17,11 - L <= 0
12 x17,12 - L <= 0
13 x17,13 - L <= 0
14 x17,14 - L <= 0
15 x17,15 - L <= 0
16 x17,16 - L <= 0
17 x17,17 - L <= 0
18 x17,18 - L <= 0
x0,1 + x6,1 + x7,1 + x12,1 <= 2
x0,2 + x0,1 + x6,2 + x6,1 + x7,2 + x7,1 + x12,2 + x12,1 <= 2
x1,3 + x8,3 + x13,3 + x17,3 <= 1
x0,3 + x0,2 + x6,3 + x6,2 + x7,3 + x7,2 + x12,3 + x12,2 <= 2
x1,4 + x8,4 + x9,4 + x13,4 + x17,4 <= 1
x0,4 + x0,3 + x2,4 + x2,3 + x6,4 + x6,3 + x7,4 + x7,3 + x12,4 + x12,3 + x14,4 + x14,3 <= 2
x1,5 + x8,5 + x9,5 + x13,5 + x17,5 <= 1
x0,5 + x0,4 + x2,5 + x2,4 + x6,5 + x6,4 + x7,5 + x7,4 + x10,5 + x10,4 + x12,5 + x12,4 + x14,5 + x14,4 <= 2
x1,6 + x3,6 + x8,6 + x9,6 + x13,6 + x15,6 + x17,6 <= 1
x0,6 + x0,5 + x2,6 + x2,5 + x6,6 + x6,5 + x7,6 + x7,5 + x10,6 + x10,5 + x12,6 + x12,5 + x14,6 + x14,5 <= 2
x1,7 + x3,7 + x4,7 + x8,7 + x9,7 + x13,7 + x15,7 + x17,7 <= 1
x0,7 + x0,6 + x2,7 + x2,6 + x6,7 + x6,6 + x7,7 + x7,6 + x10,7 + x10,6 + x12,7 + x12,6 + x14,7 + x14,6 <= 2
x1,8 + x3,8 + x4,8 + x8,8 + x9,8 + x13,8 + x15,8 + x17,8 <= 1
x0,8 + x0,7 + x2,8 + x2,7 + x5,8 + x5,7 + x6,8 + x6,7 + x7,8 + x7,7 + x10,8 + x10,7 + x12,8 + x12,7 + x14,8 + x14,7 <= 2
x1,9 + x3,9 + x4,9 + x8,9 + x9,9 + x13,9 + x15,9 + x17,9 <= 1
x0,9 + x0,8 + x2,9 + x2,8 + x5,9 + x5,8 + x6,9 + x6,8 + x7,9 + x7,8 + x10,9 + x10,8 + x12,9 + x12,8 + x14,9 + x14,8 <= 2
x1,10 + x3,10 + x4,10 + x8,10 + x9,10 + x11,10 + x13,10 + x15,10 + x17,10 <= 1
x0,10 + x0,9 + x2,10 + x2,9 + x5,10 + x5,9 + x6,10 + x6,9 + x7,10 + x7,9 + x10,10 + x10,9 + x12,10 + x12,9 + x14,10 + x14,9 <= 2
x1,11 + x3,11 + x4,11 + x8,11 + x9,11 + x11,11 + x13,11 + x15,11 + x16,11 + x17,11 <= 1
x0,11 + x0,10 + x2,11 + x2,10 + x5,11 + x5,10 + x6,11 + x6,10 + x7,11 + x7,10 + x10,11 + x10,10 + x12,11 + x12,10 + x14,11 + x14,10 <= 2
x1,12 + x3,12 + x4,12 + x8,12 + x9,12 + x11,12 + x13,12 + x15,12 + x16,12 + x17,12 <= 1
x0,12 + x0,11 + x2,12 + x2,11 + x5,12 + x5,11 + x6,12 + x6,11 + x7,12 + x7,11 + x10,12 + x10,11 + x12,12 + x12,11 + x14,12 + x14,11 <= 2
x1,13 + x3,13 + x4,13 + x8,13 + x9,13 + x11,13 + x13,13 + x15,13 + x16,13 + x17,13 <= 1
x0,13 + x0,12 + x2,13 + x2,12 + x5,13 + x5,12 + x6,13 + x6,12 + x7,13 + x7,12 + x10,13 + x10,12 + x12,13 + x12,12 + x14,13 + x14,12 <= 2
x1,14 + x3,14 + x4,14 + x8,14 + x9,14 + x11,14 + x13,14 + x15,14 + x16,14 + x17,14 <= 1
x0,14 + x0,13 + x2,14 + x2,13 + x5,14 + x5,13 + x6,14 + x6,13 + x7,14 + x7,13 + x10,14 + x10,13 + x12,14 + x12,13 + x14,14 + x14,13 <= 2
x1,15 + x3,15 + x4,15 + x8,15 + x9,15 + x11,15 + x13,15 + x15,15 + x16,15 + x17,15 <= 1
x0,15 + x0,14 + x2,15 + x2,14 + x5,15 + x5,14 + x6,15 + x6,14 + x7,15 + x7,14 + x10,15 + x10,14 + x12,15 + x12,14 + x14,15 + x14,14 <= 2
x1,16 + x3,16 + x4,16 + x8,16 + x9,16 + x11,16 + x13,16 + x15,16 + x16,16 + x17,16 <= 1
x0,16 + x0,15 + x2,16 + x2,15 + x5,16 + x5,15 + x6,16 + x6,15 + x7,16 + x7,15 + x10,16 + x10,15 + x12,16 + x12,15 + x14,16 + x14,15 <= 2
x1,17 + x3,17 + x4,17 + x8,17 + x9,17 + x11,17 + x13,17 + x15,17 + x16,17 + x17,17 <= 1
x0,17 + x0,16 + x2,17 + x2,16 + x5,17 + x5,16 + x6,17 + x6,16 + x7,17 + x7,16 + x10,17 + x10,16 + x12,17 + x12,16 + x14,17 + x14,16 <= 2
x1,18 + x3,18 + x4,18 + x8,18 + x9,18 + x11,18 + x13,18 + x15,18 + x16,18 + x17,18 <= 1
x0,18 + x0,17 + x2,18 + x2,17 + x5,18 + x5,17 + x6,18 + x6,17 + x7,18 + x7,17 + x10,18 + x10,17 + x12,18 + x12,17 + x14,18 + x14,17 <= 2
1 x0,1 + 2 x0,2 + 3 x0,3 + 4 x0,4 + 5 x0,5 + 6 x0,6 + 7 x0,7 + 8 x0,8 + 9 x0,9 + 10 x0,10 + 11 x0,11 + 12 x0,12 + 13 x0,13 + 14 x0,14 + 15 x0,15 + 16 x0,16 + 17 x0,17 + 18 x0,18 - 3 x1,3 - 4 x1,4 - 5 x1,5 - 6 x1,6 - 7 x1,7 - 8 x1,8 - 9 x1,9 - 10 x1,10 - 11 x1,11 - 12 x1,12 - 13 x1,13 - 14 x1,14 - 15 x1,15 - 16 x1,16 - 17 x1,17 - 18 x1,18 <= -2
3 x1,3 + 4 x1,4 + 5 x1,5 + 6 x1,6 + 7 x1,7 + 8 x1,8 + 9 x1,9 + 10 x1,10 + 11 x1,11 + 12 x1,12 + 13 x1,13 + 14 x1,14 + 15 x1,15 + 16 x1,16 + 17 x1,17 + 18 x1,18 - 4 x2,4 - 5 x2,5 - 6 x2,6 - 7 x2,7 - 8 x2,8 - 9 x2,9 - 10 x2,10 - 11 x2,11 - 12 x2,12 - 13 x2,13 - 14 x2,14 - 15 x2,15 - 16 x2,16 - 17 x2,17 - 18 x2,18 <= -1
4 x2,4 + 5 x2,5 + 6 x2,6 + 7 x2,7 + 8 x2,8 + 9 x2,9 + 10 x2,10 + 11 x2,11 + 12 x2,12 + 13 x2,13 + 14 x2,14 + 15 x2,15 + 16 x2,16 + 17 x2,17 + 18 x2,18 - 6 x3,6 - 7 x3,7 - 8 x3,8 - 9 x3,9 - 10 x3,10 - 11 x3,11 - 12 x3,12 - 13 x3,13 - 14 x3,14 - 15 x3,15 - 16 x3,16 - 17 x3,17 - 18 x3,18 <= -2
6 x3,6 + 7 x3,7 + 8 x3,8 + 9 x3,9 + 10 x3,10 + 11 x3,11 + 12 x3,12 + 13 x3,13 + 14 x3,14 + 15 x3,15 + 16 x3,16 + 17 x3,17 + 18 x3,18 - 7 x4,7 - 8 x4,8 - 9 x4,9 - 10 x4,10 - 11 x4,11 - 12 x4,12 - 13 x4,13 - 14 x4,14 - 15 x4,15 - 16 x4,16 - 17 x4,17 - 18 x4,18 <= -1
7 x4,7 + 8 x4,8 + 9 x4,9 + 10 x4,10 + 11 x4,11 + 12 x4,12 + 13 x4,13 + 14 x4,14 + 15 x4,15 + 16 x4,16 + 17 x4,17 + 18 x4,18 - 8 x5,8 - 9 x5,9 - 10 x5,10 - 11 x5,11 - 12 x5,12 - 13 x5,13 - 14 x5,14 - 15 x5,15 - 16 x5,16 - 17 x5,17 - 18 x5,18 <= -1
8 x5,8 + 9 x5,9 + 10 x5,10 + 11 x5,11 + 12 x5,12 + 13 x5,13 + 14 x5,14 + 15 x5,15 + 16 x5,16 + 17 x5,17 + 18 x5,18 - 10 x11,10 - 11 x11,11 - 12 x11,12 - 13 x11,13 - 14 x11,14 - 15 x11,15 - 16 x11,16 - 17 x11,17 - 18 x11,18 <= -2
1 x6,1 + 2 x6,2 + 3 x6,3 + 4 x6,4 + 5 x6,5 + 6 x6,6 + 7 x6,7 + 8 x6,8 + 9 x6,9 + 10 x6,10 + 11 x6,11 + 12 x6,12 + 13 x6,13 + 14 x6,14 + 15 x6,15 + 16 x6,16 + 17 x6,17 + 18 x6,18 - 5 x10,5 - 6 x10,6 - 7 x10,7 - 8 x10,8 - 9 x10,9 - 10 x10,10 - 11 x10,11 - 12 x10,12 - 13 x10,13 - 14 x10,14 - 15 x10,15 - 16 x10,16 - 17 x10,17 - 18 x10,18 <= -2
1 x7,1 + 2 x7,2 + 3 x7,3 + 4 x7,4 + 5 x7,5 + 6 x7,6 + 7 x7,7 + 8 x7,8 + 9 x7,9 + 10 x7,10 + 11 x7,11 + 12 x7,12 + 13 x7,13 + 14 x7,14 + 15 x7,15 + 16 x7,16 + 17 x7,17 + 18 x7,18 - 3 x8,3 - 4 x8,4 - 5 x8,5 - 6 x8,6 - 7 x8,7 - 8 x8,8 - 9 x8,9 - 10 x8,10 - 11 x8,11 - 12 x8,12 - 13 x8,13 - 14 x8,14 - 15 x8,15 - 16 x8,16 - 17 x8,17 - 18 x8,18 <= -2
3 x8,3 + 4 x8,4 + 5 x8,5 + 6 x8,6 + 7 x8,7 + 8 x8,8 + 9 x8,9 + 10 x8,10 + 11 x8,11 + 12 x8,12 + 13 x8,13 + 14 x8,14 + 15 x8,15 + 16 x8,16 + 17 x8,17 + 18 x8,18 - 4 x9,4 - 5 x9,5 - 6 x9,6 - 7 x9,7 - 8 x9,8 - 9 x9,9 - 10 x9,10 - 11 x9,11 - 12 x9,12 - 13 x9,13 - 14 x9,14 - 15 x9,15 - 16 x9,16 - 17 x9,17 - 18 x9,18 <= -1
4 x9,4 + 5 x9,5 + 6 x9,6 + 7 x9,7 + 8 x9,8 + 9 x9,9 + 10 x9,10 + 11 x9,11 + 12 x9,12 + 13 x9,13 + 14 x9,14 + 15 x9,15 + 16 x9,16 + 17 x9,17 + 18 x9,18 - 5 x10,5 - 6 x10,6 - 7 x10,7 - 8 x10,8 - 9 x10,9 - 10 x10,10 - 11 x10,11 - 12 x10,12 - 13 x10,13 - 14 x10,14 - 15 x10,15 - 16 x10,16 - 17 x10,17 - 18 x10,18 <= -1
5 x10,5 + 6 x10,6 + 7 x10,7 + 8 x10,8 + 9 x10,9 + 10 x10,10 + 11 x10,11 + 12 x10,12 + 13 x10,13 + 14 x10,14 + 15 x10,15 + 16 x10,16 + 17 x10,17 + 18 x10,18 - 10 x11,10 - 11 x11,11 - 12 x11,12 - 13 x11,13 - 14 x11,14 - 15 x11,15 - 16 x11,16 - 17 x11,17 - 18 x11,18 <= -2
10 x11,10 + 11 x11,11 + 12 x11,12 + 13 x11,13 + 14 x11,14 + 15 x11,15 + 16 x11,16 + 17 x11,17 + 18 x11,18 - 11 x16,11 - 12 x16,12 - 13 x16,13 - 14 x16,14 - 15 x16,15 - 16 x16,16 - 17 x16,17 - 18 x16,18 <= -1
1 x12,1 + 2 x12,2 + 3 x12,3 + 4 x12,4 + 5 x12,5 + 6 x12,6 + 7 x12,7 + 8 x12,8 + 9 x12,9 + 10 x12,10 + 11 x12,11 + 12 x12,12 + 13 x12,13 + 14 x12,14 + 15 x12,15 + 16 x12,16 + 17 x12,17 + 18 x12,18 - 3 x13,3 - 4 x13,4 - 5 x13,5 - 6 x13,6 - 7 x13,7 - 8 x13,8 - 9 x13,9 - 10 x13,10 - 11 x13,11 - 12 x13,12 - 13 x13,13 - 14 x13,14 - 15 x13,15 - 16 x13,16 - 17 x13,17 - 18 x13,18 <= -2
3 x13,3 + 4 x13,4 + 5 x13,5 + 6 x13,6 + 7 x13,7 + 8 x13,8 + 9 x13,9 + 10 x13,10 + 11 x13,11 + 12 x13,12 + 13 x13,13 + 14 x13,14 + 15 x13,15 + 16 x13,16 + 17 x13,17 + 18 x13,18 - 4 x14,4 - 5 x14,5 - 6 x14,6 - 7 x14,7 - 8 x14,8 - 9 x14,9 - 10 x14,10 - 11 x14,11 - 12 x14,12 - 13 x14,13 - 14 x14,14 - 15 x14,15 - 16 x14,16 - 17 x14,17 - 18 x14,18 <= -1
4 x14,4 + 5 x14,5 + 6 x14,6 + 7 x14,7 + 8 x14,8 + 9 x14,9 + 10 x14,10 + 11 x14,11 + 12 x14,12 + 13 x14,13 + 14 x14,14 + 15 x14,15 + 16 x14,16 + 17 x14,17 + 18 x14,18 - 6 x15,6 - 7 x15,7 - 8 x15,8 - 9 x15,9 - 10 x15,10 - 11 x15,11 - 12 x15,12 - 13 x15,13 - 14 x15,14 - 15 x15,15 - 16 x15,16 - 17 x15,17 - 18 x15,18 <= -2
6 x15,6 + 7 x15,7 + 8 x15,8 + 9 x15,9 + 10 x15,10 + 11 x15,11 + 12 x15,12 + 13 x15,13 + 14 x15,14 + 15 x15,15 + 16 x15,16 + 17 x15,17 + 18 x15,18 - 11 x16,11 - 12 x16,12 - 13 x16,13 - 14 x16,14 - 15 x16,15 - 16 x16,16 - 17 x16,17 - 18 x16,18 <= -1
Bounds
0 <= x0,1 <= 1
0 <= x0,2 <= 1
0 <= x0,3 <= 1
0 <= x0,4 <= 1
0 <= x0,5 <= 1
0 <= x0,6 <= 1
0 <= x0,7 <= 1
0 <= x0,8 <= 1
0 <= x0,9 <= 1
0 <= x0,10 <= 1
0 <= x0,11 <= 1
0 <= x0,12 <= 1
0 <= x0,13 <= 1
0 <= x0,14 <= 1
0 <= x0,15 <= 1
0 <= x0,16 <= 1
0 <= x0,17 <= 1
0 <= x0,18 <= 1
0 <= x1,3 <= 1
0 <= x1,4 <= 1
0 <= x1,5 <= 1
0 <= x1,6 <= 1
0 <= x1,7 <= 1
0 <= x1,8 <= 1
0 <= x1,9 <= 1
0 <= x1,10 <= 1
0 <= x1,11 <= 1
0 <= x1,12 <= 1
0 <= x1,13 <= 1
0 <= x1,14 <= 1
0 <= x1,15 <= 1
0 <= x1,16 <= 1
0 <= x1,17 <= 1
0 <= x1,18 <= 1
0 <= x2,4 <= 1
0 <= x2,5 <= 1
0 <= x2,6 <= 1
0 <= x2,7 <= 1
0 <= x2,8 <= 1
0 <= x2,9 <= 1
0 <= x2,10 <= 1
0 <= x2,11 <= 1
0 <= x2,12 <= 1
0 <= x2,13 <= 1
0 <= x2,14 <= 1
0 <= x2,15 <= 1
0 <= x2,16 <= 1
0 <= x2,17 <= 1
0 <= x2,18 <= 1
0 <= x3,6 <= 1
0 <= x3,7 <= 1
0 <= x3,8 <= 1
0 <= x3,9 <= 1
0 <= x3,10 <= 1
0 <= x3,11 <= 1
0 <= x3,12 <= 1
0 <= x3,13 <= 1
0 <= x3,14 <= 1
0 <= x3,15 <= 1
0 <= x3,16 <= 1
0 <= x3,17 <= 1
0 <= x3,18 <= 1
0 <= x4,7 <= 1
0 <= x4,8 <= 1
0 <= x4,9 <= 1
0 <= x4,10 <= 1
0 <= x4,11 <= 1
0 <= x4,12 <= 1
0 <= x4,13 <= 1
0 <= x4,14 <= 1
0 <= x4,15 <= 1
0 <= x4,16 <= 1
0 <= x4,17 <= 1
0 <= x4,18 <= 1
0 <= x5,8 <= 1
0 <= x5,9 <= 1
0 <= x5,10 <= 1
0 <= x5,11 <= 1
0 <= x5,12 <= 1
0 <= x5,13 <= 1
0 <= x5,14 <= 1
0 <= x5,15 <= 1
0 <= x5,16 <= 1
0 <= x5,17 <= 1
0 <= x5,18 <= 1
0 <= x6,1 <= 1
0 <= x6,2 <= 1
0 <= x6,3 <= 1
0 <= x6,4 <= 1
0 <= x6,5 <= 1
0 <= x6,6 <= 1
0 <= x6,7 <= 1
0 <= x6,8 <= 1
0 <= x6,9 <= 1
0 <= x6,10 <= 1
0 <= x6,11 <= 1
0 <= x6,12 <= 1
0 <= x6,13 <= 1
0 <= x6,14 <= 1
0 <= x6,15 <= 1
0 <= x6,16 <= 1
0 <= x6,17 <= 1
0 <= x6,18 <= 1
0 <= x7,1 <= 1
0 <= x7,2 <= 1
0 <= x7,3 <= 1
0 <= x7,4 <= 1
0 <= x7,5 <= 1
0 <= x7,6 <= 1
0 <= x7,7 <= 1
0 <= x7,8 <= 1
0 <= x7,9 <= 1
0 <= x7,10 <= 1
0 <= x7,11 <= 1
0 <= x7,12 <= 1
0 <= x7,13 <= 1
0 <= x7,14 <= 1
0 <= x7,15 <= 1
0 <= x7,16 <= 1
0 <= x7,17 <= 1
0 <= x7,18 <= 1
0 <= x8,3 <= 1
0 <= x8,4 <= 1
0 <= x8,5 <= 1
0 <= x8,6 <= 1
0 <= x8,7 <= 1
0 <= x8,8 <= 1
0 <= x8,9 <= 1
0 <= x8,10 <= 1
0 <= x8,11 <= 1
0 <= x8,12 <= 1
0 <= x8,13 <= 1
0 <= x8,14 <= 1
0 <= x8,15 <= 1
0 <= x8,16 <= 1
0 <= x8,17 <= 1
0 <= x8,18 <= 1
0 <= x9,4 <= 1
0 <= x9,5 <= 1
0 <= x9,6 <= 1
0 <= x9,7 <= 1
0 <= x9,8 <= 1
0 <= x9,9 <= 1
0 <= x9,10 <= 1
0 <= x9,11 <= 1
0 <= x9,12 <= 1
0 <= x9,13 <= 1
0 <= x9,14 <= 1
0 <= x9,15 <= 1
0 <= x9,16 <= 1
0 <= x9,17 <= 1
0 <= x9,18 <= 1
0 <= x10,5 <= 1
0 <= x10,6 <= 1
0 <= x10,7 <= 1
0 <= x10,8 <= 1
0 <= x10,9 <= 1
0 <= x10,10 <= 1
0 <= x10,11 <= 1
0 <= x10,12 <= 1
0 <= x10,13 <= 1
0 <= x10,14 <= 1
0 <= x10,15 <= 1
0 <= x10,16 <= 1
0 <= x10,17 <= 1
0 <= x10,18 <= 1
0 <= x11,10 <= 1
0 <= x11,11 <= 1
0 <= x11,12 <= 1
0 <= x11,13 <= 1
0 <= x11,14 <= 1
0 <= x11,15 <= 1
0 <= x11,16 <= 1
0 <= x11,17 <= 1
0 <= x11,18 <= 1
0 <= x12,1 <= 1
0 <= x12,2 <= 1
0 <= x12,3 <= 1
0 <= x12,4 <= 1
0 <= x12,5 <= 1
0 <= x12,6 <= 1
0 <= x12,7 <= 1
0 <= x12,8 <= 1
0 <= x12,9 <= 1
0 <= x12,10 <= 1
0 <= x12,11 <= 1
0 <= x12,12 <= 1
0 <= x12,13 <= 1
0 <= x12,14 <= 1
0 <= x12,15 <= 1
0 <= x12,16 <= 1
0 <= x12,17 <= 1
0 <= x12,18 <= 1
0 <= x13,3 <= 1
0 <= x13,4 <= 1
0 <= x13,5 <= 1
0 <= x13,6 <= 1
0 <= x13,7 <= 1
0 <= x13,8 <= 1
0 <= x13,9 <= 1
0 <= x13,10 <= 1
0 <= x13,11 <= 1
0 <= x13,12 <= 1
0 <= x13,13 <= 1
0 <= x13,14 <= 1
0 <= x13,15 <= 1
0 <= x13,16 <= 1
0 <= x13,17 <= 1
0 <= x13,18 <= 1
0 <= x14,4 <= 1
0 <= x14,5 <= 1
0 <= x14,6 <= 1
0 <= x14,7 <= 1
0 <= x14,8 <= 1
0 <= x14,9 <= 1
0 <= x14,10 <= 1
0 <= x14,11 <= 1
0 <= x14,12 <= 1
0 <= x14,13 <= 1
0 <= x14,14 <= 1
0 <= x14,15 <= 1
0 <= x14,16 <= 1
0 <= x14,17 <= 1
0 <= x14,18 <= 1
0 <= x15,6 <= 1
0 <= x15,7 <= 1
0 <= x15,8 <= 1
0 <= x15,9 <= 1
0 <= x15,10 <= 1
0 <= x15,11 <= 1
0 <= x15,12 <= 1
0 <= x15,13 <= 1
0 <= x15,14 <= 1
0 <= x15,15 <= 1
0 <= x15,16 <= 1
0 <= x15,17 <= 1
0 <= x15,18 <= 1
0 <= x16,11 <= 1
0 <= x16,12 <= 1
0 <= x16,13 <= 1
0 <= x16,14 <= 1
0 <= x16,15 <= 1
0 <= x16,16 <= 1
0 <= x16,17 <= 1
0 <= x16,18 <= 1
0 <= x17,1 <= 1
0 <= x17,2 <= 1
0 <= x17,3 <= 1
0 <= x17,4 <= 1
0 <= x17,5 <= 1
0 <= x17,6 <= 1
0 <= x17,7 <= 1
0 <= x17,8 <= 1
0 <= x17,9 <= 1
0 <= x17,10 <= 1
0 <= x17,11 <= 1
0 <= x17,12 <= 1
0 <= x17,13 <= 1
0 <= x17,14 <= 1
0 <= x17,15 <= 1
0 <= x17,16 <= 1
0 <= x17,17 <= 1
0 <= x17,18 <= 1
L >= 1
Generals
x0,1
x0,2
x0,3
x0,4
x0,5
x0,6
x0,7
x0,8
x0,9
x0,10
x0,11
x0,12
x0,13
x0,14
x0,15
x0,16
x0,17
x0,18
x1,3
x1,4
x1,5
x1,6
x1,7
x1,8
x1,9
x1,10
x1,11
x1,12
x1,13
x1,14
x1,15
x1,16
x1,17
x1,18
x2,4
x2,5
x2,6
x2,7
x2,8
x2,9
x2,10
x2,11
x2,12
x2,13
x2,14
x2,15
x2,16
x2,17
x2,18
x3,6
x3,7
x3,8
x3,9
x3,10
x3,11
x3,12
x3,13
x3,14
x3,15
x3,16
x3,17
x3,18
x4,7
x4,8
x4,9
x4,10
x4,11
x4,12
x4,13
x4,14
x4,15
x4,16
x4,17
x4,18
x5,8
x5,9
x5,10
x5,11
x5,12
x5,13
x5,14
x5,15
x5,16
x5,17
x5,18
x6,1
x6,2
x6,3
x6,4
x6,5
x6,6
x6,7
x6,8
x6,9
x6,10
x6,11
x6,12
x6,13
x6,14
x6,15
x6,16
x6,17
x6,18
x7,1
x7,2
x7,3
x7,4
x7,5
x7,6
x7,7
x7,8
x7,9
x7,10
x7,11
x7,12
x7,13
x7,14
x7,15
x7,16
x7,17
x7,18
x8,3
x8,4
x8,5
x8,6
x8,7
x8,8
x8,9
x8,10
x8,11
x8,12
x8,13
x8,14
x8,15
x8,16
x8,17
x8,18
x9,4
x9,5
x9,6
x9,7
x9,8
x9,9
x9,10
x9,11
x9,12
x9,13
x9,14
x9,15
x9,16
x9,17
x9,18
x10,5
x10,6
x10,7
x10,8
x10,9
x10,10
x10,11
x10,12
x10,13
x10,14
x10,15
x10,16
x10,17
x10,18
x11,10
x11,11
x11,12
x11,13
x11,14
x11,15
x11,16
x11,17
x11,18
x12,1
x12,2
x12,3
x12,4
x12,5
x12,6
x12,7
x12,8
x12,9
x12,10
x12,11
x12,12
x12,13
x12,14
x12,15
x12,16
x12,17
x12,18
x13,3
x13,4
x13,5
x13,6
x13,7
x13,8
x13,9
x13,10
x13,11
x13,12
x13,13
x13,14
x13,15
x13,16
x13,17
x13,18
x14,4
x14,5
x14,6
x14,7
x14,8
x14,9
x14,10
x14,11
x14,12
x14,13
x14,14
x14,15
x14,16
x14,17
x14,18
x15,6
x15,7
x15,8
x15,9
x15,10
x15,11
x15,12
x15,13
x15,14
x15,15
x15,16
x15,17
x15,18
x16,11
x16,12
x16,13
x16,14
x16,15
x16,16
x16,17
x16,18
x17,1
x17,2
x17,3
x17,4
x17,5
x17,6
x17,7
x17,8
x17,9
x17,10
x17,11
x17,12
x17,13
x17,14
x17,15
x17,16
x17,17
x17,18
L
End
